p edge 50 125
e 1 6
e 1 7
e 1 22
e 1 23
e 1 34
e 1 48
e 2 8
e 2 9
e 2 12
e 2 17
e 3 6
e 3 20
e 3 33
e 3 37
e 3 46
e 4 10
e 4 20
e 4 41
e 4 43
e 5 11
e 5 13
e 5 14
e 5 16
e 5 25
e 5 41
e 6 11
e 6 22
e 6 33
e 6 35
e 6 46
e 6 49
e 7 9
e 7 14
e 7 38
e 7 41
e 8 18
e 9 35
e 9 42
e 9 45
e 9 48
e 10 15
e 10 35
e 10 45
e 10 47
e 11 18
e 11 46
e 12 24
e 12 29
e 12 42
e 12 46
e 12 49
e 13 18
e 13 22
e 13 33
e 13 41
e 14 15
e 14 16
e 14 23
e 14 33
e 14 44
e 14 45
e 15 18
e 15 38
e 15 41
e 16 49
e 17 25
e 17 42
e 17 46
e 18 28
e 18 30
e 18 44
e 19 33
e 19 35
e 19 37
e 19 42
e 19 50
e 20 27
e 20 28
e 20 40
e 20 45
e 22 28
e 22 33
e 22 34
e 22 42
e 22 43
e 23 26
e 23 27
e 23 37
e 23 42
e 24 26
e 24 27
e 24 36
e 24 49
e 25 32
e 25 35
e 25 36
e 25 44
e 26 27
e 26 28
e 26 32
e 26 41
e 26 42
e 26 50
e 27 29
e 28 33
e 28 37
e 28 48
e 30 41
e 30 50
e 31 50
e 32 36
e 32 38
e 32 39
e 33 34
e 34 43
e 34 48
e 35 38
e 35 48
e 37 41
e 37 44
e 41 49
e 42 47
e 45 46
e 46 48
e 49 50
